119
200
160	3
159	3
158	4
157	3
156	4
155	4
154	5
153	2
152	2
151	6
150	6
149	6
148	1
147	3
146	2
145	9
144	3
143	3
142	5
141	1
140	4
139	1
138	1
137	3
136	3
135	2
133	1
132	2
131	2
130	4
129	1
128	4
127	3
126	3
125	4
124	3
123	5
122	2
121	3
120	4
119	1
118	3
117	7
116	1
115	2
114	1
113	2
112	7
111	2
110	2
109	4
108	8
107	3
106	2
105	7
104	2
103	1
102	5
101	3
100	5
99	3
98	1
97	1
96	8
95	3
94	4
93	3
92	2
91	5
90	2
89	5
88	3
87	3
86	3
84	2
83	6
82	6
81	4
80	4
79	6
78	4
77	7
76	6
75	3
74	4
73	5
72	1
71	4
70	5
69	1
68	2
67	2
66	2
65	5
64	4
63	2
62	5
61	5
60	4
59	3
58	2
57	6
56	4
55	2
54	2
53	3
52	6
51	2
50	3
49	1
48	2
47	1
46	4
45	1
44	5
43	3
42	2
41	4
40	1
